Set parameter Username
Academic license - for non-commercial use only - expires 2023-12-01
Set parameter Username
Academic license - for non-commercial use only - expires 2023-12-01
Set parameter Username
Academic license - for non-commercial use only - expires 2023-12-01
Set parameter TimeLimit to value 3600
Set parameter MIPGap to value 1e-06
Set parameter Threads to value 1
Gurobi Optimizer version 9.5.2 build v9.5.2rc0 (linux64)
Thread count: 4 physical cores, 8 logical processors, using up to 1 threads
Optimize a model with 208 rows, 312 columns and 570 nonzeros
Model fingerprint: 0x4137c09d
Coefficient statistics:
  Matrix range     [1e+00, 5e+03]
  Objective range  [2e-01, 2e+03]
  Bounds range     [1e+00, 1e+00]
  RHS range        [2e+01, 2e+02]
Presolve removed 105 rows and 105 columns
Presolve time: 0.00s
Presolved: 103 rows, 207 columns, 360 nonzeros

Iteration    Objective       Primal Inf.    Dual Inf.      Time
       0    3.2395748e+01   2.429731e+02   0.000000e+00      0s
     137    5.8620649e+03   0.000000e+00   0.000000e+00      0s

Solved in 137 iterations and 0.00 seconds (0.00 work units)
Optimal objective  5.862064937e+03
Obj: 5862.06
